NAME : J-n-25-k3.vrp
COMMENT : (Jude, Min no of trucks: 3, Optimal value: 254)
TYPE : CVRP
DIMENSION : 25
EDGE_WEIGHT_TYPE : EUC_2D
CAPACITY : 60000
NODE_COORD_SECTION
1 0 0
2 10 0
3 20 0
4 30 0
5 40 0
6 40 40
7 30 40
8 20 40
9 10 40
10 10 10
11 10 20
12 10 30
13 20 10
14 20 20
15 20 30
16 30 10
17 30 20
18 30 30
19 40 10
20 40 20
21 40 30
22 0 10
23 0 20
24 0 30
25 0 40
DEMAND_SECTION
1 0
2 500
3 500
4 500
5 500
6 500
7 500
8 500
9 500
10 500
11 500
12 500
13 500
14 500
15 500
16 500
17 500
18 500
19 500
20 500
21 500
22 500
23 500
24 500
25 500
DEPOT_SECTION
 1
 -1
EOF
